(set-logic QF_UF)
(declare-fun A0 () Bool)
(declare-fun A1 () Bool)
(declare-fun A2 () Bool)
(declare-fun A3 () Bool)
(declare-fun A4 () Bool)
(declare-fun A5 () Bool)
(declare-fun A7 () Bool)
(declare-fun A8 () Bool)
(declare-fun A9 () Bool)
(declare-fun A10 () Bool)
(declare-fun A11 () Bool)
(declare-fun A12 () Bool)
(declare-fun A14 () Bool)
(declare-fun A15 () Bool)
(declare-fun A16 () Bool)
(declare-fun A18 () Bool)
(declare-fun A20 () Bool)
(declare-fun A21 () Bool)
(declare-fun A23 () Bool)
(declare-fun A25 () Bool)
(declare-fun A26 () Bool)
(declare-fun A27 () Bool)
(declare-fun A28 () Bool)
(declare-fun A29 () Bool)
(assert (let ((.def_0 (not A1))) (let ((.def_1 (not A23))) (let ((.def_2 (or .def_1 .def_0))) (let ((.def_3 (not .def_2))) (let ((.def_4 (not A25))) (let ((.def_5 (not A15))) (let ((.def_6 (and .def_5 .def_4))) (let ((.def_7 (not .def_6))) (let ((.def_8 (and .def_7 .def_3))) (let ((.def_9 (not .def_8))) (let ((.def_10 (not A4))) (let ((.def_11 (or .def_10 A5))) (let ((.def_12 (not .def_11))) (let ((.def_13 (not A0))) (let ((.def_14 (= .def_0 .def_13))) (let ((.def_15 (or .def_14 .def_12))) (let ((.def_16 (and .def_15 .def_9))) (let ((.def_17 (not .def_16))) (let ((.def_18 (not A29))) (let ((.def_19 (not A16))) (let ((.def_20 (= .def_19 .def_18))) (let ((.def_21 (not .def_20))) (let ((.def_22 (not A21))) (let ((.def_23 (or .def_22 A16))) (let ((.def_24 (not .def_23))) (let ((.def_25 (and .def_24 .def_21))) (let ((.def_26 (not .def_25))) (let ((.def_27 (not A20))) (let ((.def_28 (not A2))) (let ((.def_29 (and .def_28 .def_27))) (let ((.def_30 (and A18 A5))) (let ((.def_31 (and .def_30 .def_29))) (let ((.def_32 (or .def_31 .def_26))) (let ((.def_33 (or .def_32 .def_17))) (let ((.def_34 (not .def_33))) (let ((.def_35 (and A0 A9))) (let ((.def_36 (not A27))) (let ((.def_37 (and A8 .def_36))) (let ((.def_38 (not .def_37))) (let ((.def_39 (and .def_38 .def_35))) (let ((.def_40 (not .def_39))) (let ((.def_41 (or .def_18 .def_18))) (let ((.def_42 (not .def_41))) (let ((.def_43 (not A8))) (let ((.def_44 (or .def_43 A5))) (let ((.def_45 (not .def_44))) (let ((.def_46 (and .def_45 .def_42))) (let ((.def_47 (or .def_46 .def_40))) (let ((.def_48 (not .def_47))) (let ((.def_49 (and A0 A18))) (let ((.def_50 (not A14))) (let ((.def_51 (and .def_10 .def_50))) (let ((.def_52 (or .def_51 .def_49))) (let ((.def_53 (not .def_52))) (let ((.def_54 (= A10 A26))) (let ((.def_55 (and A0 A11))) (let ((.def_56 (not .def_55))) (let ((.def_57 (= .def_56 .def_54))) (let ((.def_58 (and .def_57 .def_53))) (let ((.def_59 (not .def_58))) (let ((.def_60 (or .def_59 .def_48))) (let ((.def_61 (or .def_60 .def_34))) (let ((.def_62 (and A25 A5))) (let ((.def_63 (or .def_36 A0))) (let ((.def_64 (not .def_63))) (let ((.def_65 (= .def_64 .def_62))) (let ((.def_66 (not .def_65))) (let ((.def_67 (not A26))) (let ((.def_68 (or A12 .def_67))) (let ((.def_69 (and .def_28 A3))) (let ((.def_70 (not .def_69))) (let ((.def_71 (and .def_70 .def_68))) (let ((.def_72 (or .def_71 .def_66))) (let ((.def_73 (not .def_72))) (let ((.def_74 (or .def_13 .def_50))) (let ((.def_75 (or A26 .def_1))) (let ((.def_76 (not .def_75))) (let ((.def_77 (and .def_76 .def_74))) (let ((.def_78 (or A28 .def_19))) (let ((.def_79 (or .def_27 .def_22))) (let ((.def_80 (not .def_79))) (let ((.def_81 (and .def_80 .def_78))) (let ((.def_82 (or .def_81 .def_77))) (let ((.def_83 (or .def_82 .def_73))) (let ((.def_84 (not .def_83))) (let ((.def_85 (not A3))) (let ((.def_86 (and .def_85 A1))) (let ((.def_87 (not .def_86))) (let ((.def_88 (not A11))) (let ((.def_89 (or A1 .def_88))) (let ((.def_90 (and .def_89 .def_87))) (let ((.def_91 (or A9 .def_18))) (let ((.def_92 (not .def_91))) (let ((.def_93 (or A29 A15))) (let ((.def_94 (not .def_93))) (let ((.def_95 (and .def_94 .def_92))) (let ((.def_96 (not .def_95))) (let ((.def_97 (= .def_96 .def_90))) (let ((.def_98 (not .def_97))) (let ((.def_99 (not A5))) (let ((.def_100 (or A21 .def_99))) (let ((.def_101 (and A20 .def_13))) (let ((.def_102 (or .def_101 .def_100))) (let ((.def_103 (not A28))) (let ((.def_104 (and A7 .def_103))) (let ((.def_105 (and A27 A10))) (let ((.def_106 (not .def_105))) (let ((.def_107 (and .def_106 .def_104))) (let ((.def_108 (not .def_107))) (let ((.def_109 (and .def_108 .def_102))) (let ((.def_110 (not .def_109))) (let ((.def_111 (or .def_110 .def_98))) (let ((.def_112 (not .def_111))) (let ((.def_113 (and .def_112 .def_84))) (let ((.def_114 (or .def_113 .def_61))) .def_114))))))))))))))))))))))))))))))))))))))))))))))))))))))))))))))))))))))))))))))))))))))))))))))))))))))))))))))))))))
(check-sat)
